p tw 93 104
1 2
2 13
3 4
4 5
5 6
6 7
7 8
7 46
8 9
8 28
9 10
9 11
10 92
11 12
12 14
13 24
14 15
15 16
16 17
17 18
18 19
19 20
20 21
21 22
22 23
22 17
23 25
24 35
25 26
26 27
27 40
28 29
29 30
30 31
30 32
31 92
32 33
33 34
34 36
35 46
36 37
37 38
38 39
39 40
40 41
41 42
42 43
43 44
43 50
44 45
45 47
46 57
47 48
48 49
49 92
50 51
51 52
52 53
53 54
53 75
54 55
55 56
56 58
57 68
58 59
59 60
60 61
61 62
61 69
62 63
63 64
64 65
65 66
65 69
66 67
67 92
68 79
69 70
70 71
71 72
72 73
73 74
73 58
74 92
75 76
76 77
77 78
78 80
79 90
80 81
81 82
82 83
82 85
83 84
84 92
85 86
86 87
87 88
88 89
89 91
89 77
90 3
91 92
92 93
